NAME           C:\Bruker\Hvattum\knapsack\Problems\class1\100-5-29.mps
ROWS
 N  OBJ
 L  CONSTR1
 L  CONSTR2
 L  CONSTR3
 L  CONSTR4
 L  CONSTR5
COLUMNS
    INT0001   'MARKER'  'INTORG'
    X1        OBJ       442
    X1        CONSTR1   290
    X1        CONSTR2   783
    X1        CONSTR3   480
    X1        CONSTR4   451
    X1        CONSTR5   90
    X2        OBJ       1020
    X2        CONSTR1   750
    X2        CONSTR2   405
    X2        CONSTR3   350
    X2        CONSTR4   243
    X2        CONSTR5   862
    X3        OBJ       901
    X3        CONSTR1   494
    X3        CONSTR2   45
    X3        CONSTR3   680
    X3        CONSTR4   127
    X3        CONSTR5   811
    X4        OBJ       607
    X4        CONSTR1   170
    X4        CONSTR2   260
    X4        CONSTR3   402
    X4        CONSTR4   136
    X4        CONSTR5   657
    X5        OBJ       897
    X5        CONSTR1   993
    X5        CONSTR2   151
    X5        CONSTR3   389
    X5        CONSTR4   235
    X5        CONSTR5   395
    X6        OBJ       604
    X6        CONSTR1   518
    X6        CONSTR2   557
    X6        CONSTR3   238
    X6        CONSTR4   43
    X6        CONSTR5   755
    X7        OBJ       347
    X7        CONSTR1   578
    X7        CONSTR2   96
    X7        CONSTR3   582
    X7        CONSTR4   214
    X7        CONSTR5   207
    X8        OBJ       624
    X8        CONSTR1   614
    X8        CONSTR2   128
    X8        CONSTR3   964
    X8        CONSTR4   100
    X8        CONSTR5   406
    X9        OBJ       869
    X9        CONSTR1   206
    X9        CONSTR2   822
    X9        CONSTR3   195
    X9        CONSTR4   620
    X9        CONSTR5   998
    X10       OBJ       788
    X10       CONSTR1   429
    X10       CONSTR2   870
    X10       CONSTR3   871
    X10       CONSTR4   6
    X10       CONSTR5   166
    X11       OBJ       710
    X11       CONSTR1   689
    X11       CONSTR2   246
    X11       CONSTR3   232
    X11       CONSTR4   933
    X11       CONSTR5   78
    X12       OBJ       1050
    X12       CONSTR1   19
    X12       CONSTR2   816
    X12       CONSTR3   953
    X12       CONSTR4   763
    X12       CONSTR5   459
    X13       OBJ       286
    X13       CONSTR1   222
    X13       CONSTR2   856
    X13       CONSTR3   81
    X13       CONSTR4   20
    X13       CONSTR5   38
    X14       OBJ       703
    X14       CONSTR1   585
    X14       CONSTR2   306
    X14       CONSTR3   443
    X14       CONSTR4   518
    X14       CONSTR5   855
    X15       OBJ       585
    X15       CONSTR1   190
    X15       CONSTR2   914
    X15       CONSTR3   817
    X15       CONSTR4   709
    X15       CONSTR5   37
    X16       OBJ       669
    X16       CONSTR1   236
    X16       CONSTR2   386
    X16       CONSTR3   518
    X16       CONSTR4   796
    X16       CONSTR5   373
    X17       OBJ       614
    X17       CONSTR1   436
    X17       CONSTR2   19
    X17       CONSTR3   213
    X17       CONSTR4   989
    X17       CONSTR5   405
    X18       OBJ       816
    X18       CONSTR1   420
    X18       CONSTR2   755
    X18       CONSTR3   995
    X18       CONSTR4   657
    X18       CONSTR5   907
    X19       OBJ       728
    X19       CONSTR1   747
    X19       CONSTR2   388
    X19       CONSTR3   849
    X19       CONSTR4   320
    X19       CONSTR5   761
    X20       OBJ       688
    X20       CONSTR1   21
    X20       CONSTR2   406
    X20       CONSTR3   574
    X20       CONSTR4   282
    X20       CONSTR5   259
    X21       OBJ       953
    X21       CONSTR1   690
    X21       CONSTR2   931
    X21       CONSTR3   631
    X21       CONSTR4   8
    X21       CONSTR5   614
    X22       OBJ       688
    X22       CONSTR1   124
    X22       CONSTR2   198
    X22       CONSTR3   499
    X22       CONSTR4   474
    X22       CONSTR5   845
    X23       OBJ       882
    X23       CONSTR1   765
    X23       CONSTR2   347
    X23       CONSTR3   415
    X23       CONSTR4   177
    X23       CONSTR5   658
    X24       OBJ       770
    X24       CONSTR1   236
    X24       CONSTR2   664
    X24       CONSTR3   178
    X24       CONSTR4   817
    X24       CONSTR5   375
    X25       OBJ       407
    X25       CONSTR1   692
    X25       CONSTR2   188
    X25       CONSTR3   381
    X25       CONSTR4   277
    X25       CONSTR5   489
    X26       OBJ       436
    X26       CONSTR1   141
    X26       CONSTR2   614
    X26       CONSTR3   68
    X26       CONSTR4   1
    X26       CONSTR5   82
    X27       OBJ       1030
    X27       CONSTR1   329
    X27       CONSTR2   474
    X27       CONSTR3   621
    X27       CONSTR4   654
    X27       CONSTR5   576
    X28       OBJ       930
    X28       CONSTR1   395
    X28       CONSTR2   870
    X28       CONSTR3   542
    X28       CONSTR4   682
    X28       CONSTR5   524
    X29       OBJ       778
    X29       CONSTR1   740
    X29       CONSTR2   684
    X29       CONSTR3   765
    X29       CONSTR4   362
    X29       CONSTR5   73
    X30       OBJ       667
    X30       CONSTR1   265
    X30       CONSTR2   274
    X30       CONSTR3   164
    X30       CONSTR4   555
    X30       CONSTR5   287
    X31       OBJ       790
    X31       CONSTR1   242
    X31       CONSTR2   387
    X31       CONSTR3   829
    X31       CONSTR4   895
    X31       CONSTR5   735
    X32       OBJ       671
    X32       CONSTR1   6
    X32       CONSTR2   282
    X32       CONSTR3   992
    X32       CONSTR4   447
    X32       CONSTR5   531
    X33       OBJ       628
    X33       CONSTR1   781
    X33       CONSTR2   702
    X33       CONSTR3   412
    X33       CONSTR4   410
    X33       CONSTR5   758
    X34       OBJ       464
    X34       CONSTR1   322
    X34       CONSTR2   222
    X34       CONSTR3   678
    X34       CONSTR4   610
    X34       CONSTR5   387
    X35       OBJ       680
    X35       CONSTR1   749
    X35       CONSTR2   999
    X35       CONSTR3   407
    X35       CONSTR4   180
    X35       CONSTR5   37
    X36       OBJ       885
    X36       CONSTR1   108
    X36       CONSTR2   991
    X36       CONSTR3   799
    X36       CONSTR4   405
    X36       CONSTR5   581
    X37       OBJ       882
    X37       CONSTR1   496
    X37       CONSTR2   718
    X37       CONSTR3   561
    X37       CONSTR4   152
    X37       CONSTR5   827
    X38       OBJ       354
    X38       CONSTR1   557
    X38       CONSTR2   58
    X38       CONSTR3   81
    X38       CONSTR4   34
    X38       CONSTR5   772
    X39       OBJ       831
    X39       CONSTR1   875
    X39       CONSTR2   129
    X39       CONSTR3   64
    X39       CONSTR4   488
    X39       CONSTR5   229
    X40       OBJ       1046
    X40       CONSTR1   976
    X40       CONSTR2   211
    X40       CONSTR3   559
    X40       CONSTR4   204
    X40       CONSTR5   791
    X41       OBJ       987
    X41       CONSTR1   528
    X41       CONSTR2   520
    X41       CONSTR3   577
    X41       CONSTR4   535
    X41       CONSTR5   400
    X42       OBJ       920
    X42       CONSTR1   719
    X42       CONSTR2   517
    X42       CONSTR3   665
    X42       CONSTR4   121
    X42       CONSTR5   443
    X43       OBJ       427
    X43       CONSTR1   52
    X43       CONSTR2   981
    X43       CONSTR3   130
    X43       CONSTR4   255
    X43       CONSTR5   267
    X44       OBJ       451
    X44       CONSTR1   76
    X44       CONSTR2   905
    X44       CONSTR3   198
    X44       CONSTR4   136
    X44       CONSTR5   89
    X45       OBJ       760
    X45       CONSTR1   670
    X45       CONSTR2   303
    X45       CONSTR3   400
    X45       CONSTR4   924
    X45       CONSTR5   278
    X46       OBJ       528
    X46       CONSTR1   764
    X46       CONSTR2   487
    X46       CONSTR3   160
    X46       CONSTR4   884
    X46       CONSTR5   198
    X47       OBJ       992
    X47       CONSTR1   115
    X47       CONSTR2   740
    X47       CONSTR3   366
    X47       CONSTR4   824
    X47       CONSTR5   846
    X48       OBJ       994
    X48       CONSTR1   962
    X48       CONSTR2   555
    X48       CONSTR3   750
    X48       CONSTR4   773
    X48       CONSTR5   470
    X49       OBJ       1041
    X49       CONSTR1   771
    X49       CONSTR2   662
    X49       CONSTR3   276
    X49       CONSTR4   486
    X49       CONSTR5   844
    X50       OBJ       562
    X50       CONSTR1   660
    X50       CONSTR2   209
    X50       CONSTR3   114
    X50       CONSTR4   224
    X50       CONSTR5   449
    X51       OBJ       539
    X51       CONSTR1   605
    X51       CONSTR2   436
    X51       CONSTR3   818
    X51       CONSTR4   194
    X51       CONSTR5   172
    X52       OBJ       481
    X52       CONSTR1   27
    X52       CONSTR2   810
    X52       CONSTR3   56
    X52       CONSTR4   100
    X52       CONSTR5   249
    X53       OBJ       620
    X53       CONSTR1   185
    X53       CONSTR2   32
    X53       CONSTR3   650
    X53       CONSTR4   971
    X53       CONSTR5   491
    X54       OBJ       717
    X54       CONSTR1   156
    X54       CONSTR2   53
    X54       CONSTR3   411
    X54       CONSTR4   511
    X54       CONSTR5   588
    X55       OBJ       588
    X55       CONSTR1   465
    X55       CONSTR2   897
    X55       CONSTR3   306
    X55       CONSTR4   264
    X55       CONSTR5   9
    X56       OBJ       713
    X56       CONSTR1   867
    X56       CONSTR2   173
    X56       CONSTR3   309
    X56       CONSTR4   751
    X56       CONSTR5   139
    X57       OBJ       497
    X57       CONSTR1   400
    X57       CONSTR2   601
    X57       CONSTR3   77
    X57       CONSTR4   218
    X57       CONSTR5   308
    X58       OBJ       645
    X58       CONSTR1   734
    X58       CONSTR2   693
    X58       CONSTR3   936
    X58       CONSTR4   7
    X58       CONSTR5   451
    X59       OBJ       766
    X59       CONSTR1   919
    X59       CONSTR2   447
    X59       CONSTR3   311
    X59       CONSTR4   548
    X59       CONSTR5   597
    X60       OBJ       696
    X60       CONSTR1   739
    X60       CONSTR2   115
    X60       CONSTR3   821
    X60       CONSTR4   502
    X60       CONSTR5   542
    X61       OBJ       905
    X61       CONSTR1   722
    X61       CONSTR2   544
    X61       CONSTR3   258
    X61       CONSTR4   640
    X61       CONSTR5   845
    X62       OBJ       920
    X62       CONSTR1   968
    X62       CONSTR2   397
    X62       CONSTR3   512
    X62       CONSTR4   714
    X62       CONSTR5   944
    X63       OBJ       574
    X63       CONSTR1   8
    X63       CONSTR2   570
    X63       CONSTR3   51
    X63       CONSTR4   46
    X63       CONSTR5   352
    X64       OBJ       864
    X64       CONSTR1   140
    X64       CONSTR2   665
    X64       CONSTR3   451
    X64       CONSTR4   624
    X64       CONSTR5   281
    X65       OBJ       914
    X65       CONSTR1   926
    X65       CONSTR2   75
    X65       CONSTR3   252
    X65       CONSTR4   763
    X65       CONSTR5   709
    X66       OBJ       417
    X66       CONSTR1   372
    X66       CONSTR2   159
    X66       CONSTR3   209
    X66       CONSTR4   815
    X66       CONSTR5   193
    X67       OBJ       756
    X67       CONSTR1   577
    X67       CONSTR2   515
    X67       CONSTR3   352
    X67       CONSTR4   57
    X67       CONSTR5   998
    X68       OBJ       915
    X68       CONSTR1   947
    X68       CONSTR2   186
    X68       CONSTR3   582
    X68       CONSTR4   25
    X68       CONSTR5   986
    X69       OBJ       648
    X69       CONSTR1   381
    X69       CONSTR2   913
    X69       CONSTR3   481
    X69       CONSTR4   856
    X69       CONSTR5   277
    X70       OBJ       709
    X70       CONSTR1   37
    X70       CONSTR2   866
    X70       CONSTR3   683
    X70       CONSTR4   147
    X70       CONSTR5   409
    X71       OBJ       898
    X71       CONSTR1   462
    X71       CONSTR2   260
    X71       CONSTR3   163
    X71       CONSTR4   961
    X71       CONSTR5   427
    X72       OBJ       1061
    X72       CONSTR1   210
    X72       CONSTR2   945
    X72       CONSTR3   504
    X72       CONSTR4   550
    X72       CONSTR5   917
    X73       OBJ       632
    X73       CONSTR1   557
    X73       CONSTR2   365
    X73       CONSTR3   769
    X73       CONSTR4   869
    X73       CONSTR5   18
    X74       OBJ       892
    X74       CONSTR1   724
    X74       CONSTR2   530
    X74       CONSTR3   493
    X74       CONSTR4   640
    X74       CONSTR5   103
    X75       OBJ       1075
    X75       CONSTR1   561
    X75       CONSTR2   909
    X75       CONSTR3   324
    X75       CONSTR4   199
    X75       CONSTR5   949
    X76       OBJ       913
    X76       CONSTR1   161
    X76       CONSTR2   375
    X76       CONSTR3   556
    X76       CONSTR4   217
    X76       CONSTR5   823
    X77       OBJ       824
    X77       CONSTR1   104
    X77       CONSTR2   480
    X77       CONSTR3   977
    X77       CONSTR4   253
    X77       CONSTR5   900
    X78       OBJ       462
    X78       CONSTR1   142
    X78       CONSTR2   222
    X78       CONSTR3   753
    X78       CONSTR4   161
    X78       CONSTR5   856
    X79       OBJ       876
    X79       CONSTR1   824
    X79       CONSTR2   662
    X79       CONSTR3   466
    X79       CONSTR4   320
    X79       CONSTR5   844
    X80       OBJ       817
    X80       CONSTR1   366
    X80       CONSTR2   126
    X80       CONSTR3   386
    X80       CONSTR4   980
    X80       CONSTR5   136
    X81       OBJ       646
    X81       CONSTR1   580
    X81       CONSTR2   915
    X81       CONSTR3   100
    X81       CONSTR4   295
    X81       CONSTR5   281
    X82       OBJ       648
    X82       CONSTR1   742
    X82       CONSTR2   236
    X82       CONSTR3   280
    X82       CONSTR4   18
    X82       CONSTR5   117
    X83       OBJ       668
    X83       CONSTR1   991
    X83       CONSTR2   283
    X83       CONSTR3   760
    X83       CONSTR4   417
    X83       CONSTR5   546
    X84       OBJ       879
    X84       CONSTR1   370
    X84       CONSTR2   114
    X84       CONSTR3   779
    X84       CONSTR4   727
    X84       CONSTR5   436
    X85       OBJ       999
    X85       CONSTR1   617
    X85       CONSTR2   55
    X85       CONSTR3   652
    X85       CONSTR4   957
    X85       CONSTR5   439
    X86       OBJ       638
    X86       CONSTR1   609
    X86       CONSTR2   396
    X86       CONSTR3   916
    X86       CONSTR4   2
    X86       CONSTR5   701
    X87       OBJ       768
    X87       CONSTR1   531
    X87       CONSTR2   646
    X87       CONSTR3   722
    X87       CONSTR4   275
    X87       CONSTR5   787
    X88       OBJ       614
    X88       CONSTR1   622
    X88       CONSTR2   506
    X88       CONSTR3   451
    X88       CONSTR4   419
    X88       CONSTR5   232
    X89       OBJ       467
    X89       CONSTR1   13
    X89       CONSTR2   876
    X89       CONSTR3   179
    X89       CONSTR4   493
    X89       CONSTR5   243
    X90       OBJ       815
    X90       CONSTR1   94
    X90       CONSTR2   887
    X90       CONSTR3   426
    X90       CONSTR4   694
    X90       CONSTR5   8
    X91       OBJ       900
    X91       CONSTR1   866
    X91       CONSTR2   440
    X91       CONSTR3   982
    X91       CONSTR4   318
    X91       CONSTR5   403
    X92       OBJ       848
    X92       CONSTR1   442
    X92       CONSTR2   601
    X92       CONSTR3   16
    X92       CONSTR4   434
    X92       CONSTR5   852
    X93       OBJ       596
    X93       CONSTR1   656
    X93       CONSTR2   787
    X93       CONSTR3   93
    X93       CONSTR4   682
    X93       CONSTR5   340
    X94       OBJ       716
    X94       CONSTR1   297
    X94       CONSTR2   846
    X94       CONSTR3   844
    X94       CONSTR4   996
    X94       CONSTR5   225
    X95       OBJ       978
    X95       CONSTR1   74
    X95       CONSTR2   726
    X95       CONSTR3   915
    X95       CONSTR4   982
    X95       CONSTR5   657
    X96       OBJ       890
    X96       CONSTR1   12
    X96       CONSTR2   261
    X96       CONSTR3   839
    X96       CONSTR4   612
    X96       CONSTR5   574
    X97       OBJ       504
    X97       CONSTR1   22
    X97       CONSTR2   5
    X97       CONSTR3   865
    X97       CONSTR4   248
    X97       CONSTR5   878
    X98       OBJ       456
    X98       CONSTR1   60
    X98       CONSTR2   74
    X98       CONSTR3   872
    X98       CONSTR4   700
    X98       CONSTR5   17
    X99       OBJ       858
    X99       CONSTR1   72
    X99       CONSTR2   923
    X99       CONSTR3   483
    X99       CONSTR4   936
    X99       CONSTR5   952
    X100      OBJ       822
    X100      CONSTR1   408
    X100      CONSTR2   621
    X100      CONSTR3   345
    X100      CONSTR4   627
    X100      CONSTR5   608
    INT0001   'MARKER'  'INTEND'
RHS
    RHS10001  CONSTR1   34333
    RHS10001  CONSTR2   36938
    RHS10001  CONSTR3   37158
    RHS10001  CONSTR4   34418
    RHS10001  CONSTR5   36587
BOUNDS
 BV BND       X1        .00
 BV BND       X2        .00
 BV BND       X3        .00
 BV BND       X4        .00
 BV BND       X5        .00
 BV BND       X6        .00
 BV BND       X7        .00
 BV BND       X8        .00
 BV BND       X9        .00
 BV BND       X10       .00
 BV BND       X11       .00
 BV BND       X12       .00
 BV BND       X13       .00
 BV BND       X14       .00
 BV BND       X15       .00
 BV BND       X16       .00
 BV BND       X17       .00
 BV BND       X18       .00
 BV BND       X19       .00
 BV BND       X20       .00
 BV BND       X21       .00
 BV BND       X22       .00
 BV BND       X23       .00
 BV BND       X24       .00
 BV BND       X25       .00
 BV BND       X26       .00
 BV BND       X27       .00
 BV BND       X28       .00
 BV BND       X29       .00
 BV BND       X30       .00
 BV BND       X31       .00
 BV BND       X32       .00
 BV BND       X33       .00
 BV BND       X34       .00
 BV BND       X35       .00
 BV BND       X36       .00
 BV BND       X37       .00
 BV BND       X38       .00
 BV BND       X39       .00
 BV BND       X40       .00
 BV BND       X41       .00
 BV BND       X42       .00
 BV BND       X43       .00
 BV BND       X44       .00
 BV BND       X45       .00
 BV BND       X46       .00
 BV BND       X47       .00
 BV BND       X48       .00
 BV BND       X49       .00
 BV BND       X50       .00
 BV BND       X51       .00
 BV BND       X52       .00
 BV BND       X53       .00
 BV BND       X54       .00
 BV BND       X55       .00
 BV BND       X56       .00
 BV BND       X57       .00
 BV BND       X58       .00
 BV BND       X59       .00
 BV BND       X60       .00
 BV BND       X61       .00
 BV BND       X62       .00
 BV BND       X63       .00
 BV BND       X64       .00
 BV BND       X65       .00
 BV BND       X66       .00
 BV BND       X67       .00
 BV BND       X68       .00
 BV BND       X69       .00
 BV BND       X70       .00
 BV BND       X71       .00
 BV BND       X72       .00
 BV BND       X73       .00
 BV BND       X74       .00
 BV BND       X75       .00
 BV BND       X76       .00
 BV BND       X77       .00
 BV BND       X78       .00
 BV BND       X79       .00
 BV BND       X80       .00
 BV BND       X81       .00
 BV BND       X82       .00
 BV BND       X83       .00
 BV BND       X84       .00
 BV BND       X85       .00
 BV BND       X86       .00
 BV BND       X87       .00
 BV BND       X88       .00
 BV BND       X89       .00
 BV BND       X90       .00
 BV BND       X91       .00
 BV BND       X92       .00
 BV BND       X93       .00
 BV BND       X94       .00
 BV BND       X95       .00
 BV BND       X96       .00
 BV BND       X97       .00
 BV BND       X98       .00
 BV BND       X99       .00
 BV BND       X100      .00
ENDATA
